c read Graph
c width = 2
c time = 25 ms
c width = 2
c time = 4949 ms
s td 34 3 36
b 1 1 2 20
b 2 2 3 21
b 3 3 4 22
b 4 4 5 23
b 5 5 6 24
b 6 6 7 25
b 7 7 8 26
b 8 8 9 27
b 9 9 10 28
b 10 10 11 29
b 11 11 12 30
b 12 12 13 31
b 13 13 14 32
b 14 14 15 33
b 15 15 16 34
b 16 16 17 35
b 17 17 18 36
b 18 17 35 36
b 19 16 34 35
b 20 15 33 34
b 21 14 32 33
b 22 13 31 32
b 23 12 30 31
b 24 11 29 30
b 25 10 28 29
b 26 9 27 28
b 27 8 26 27
b 28 7 25 26
b 29 6 24 25
b 30 5 23 24
b 31 4 22 23
b 32 3 21 22
b 33 2 20 21
b 34 1 19 20
1 34
1 33
2 33
2 32
3 32
3 31
4 31
4 30
5 30
5 29
6 29
6 28
7 28
7 27
8 27
8 26
9 26
9 25
10 25
10 24
11 24
11 23
12 23
12 22
13 22
13 21
14 21
14 20
15 20
15 19
16 19
16 18
17 18
